p cnf 518 1959
1 2 3 4 5 6 7 8 9 0
-1 -2 0
-1 -3 0
-1 -4 0
-1 -5 0
-1 -6 0
-1 -7 0
-1 -8 0
-1 -9 0
-2 -3 0
-2 -4 0
-2 -5 0
-2 -6 0
-2 -7 0
-2 -8 0
-2 -9 0
-3 -4 0
-3 -5 0
-3 -6 0
-3 -7 0
-3 -8 0
-3 -9 0
-4 -5 0
-4 -6 0
-4 -7 0
-4 -8 0
-4 -9 0
-5 -6 0
-5 -7 0
-5 -8 0
-5 -9 0
-6 -7 0
-6 -8 0
-6 -9 0
-7 -8 0
-7 -9 0
-8 -9 0
10 11 12 13 14 15 16 17 18 0
-10 -11 0
-10 -12 0
-10 -13 0
-10 -14 0
-10 -15 0
-10 -16 0
-10 -17 0
-10 -18 0
-11 -12 0
-11 -13 0
-11 -14 0
-11 -15 0
-11 -16 0
-11 -17 0
-11 -18 0
-12 -13 0
-12 -14 0
-12 -15 0
-12 -16 0
-12 -17 0
-12 -18 0
-13 -14 0
-13 -15 0
-13 -16 0
-13 -17 0
-13 -18 0
-14 -15 0
-14 -16 0
-14 -17 0
-14 -18 0
-15 -16 0
-15 -17 0
-15 -18 0
-16 -17 0
-16 -18 0
-17 -18 0
19 20 21 22 23 24 25 26 27 0
-19 -20 0
-19 -21 0
-19 -22 0
-19 -23 0
-19 -24 0
-19 -25 0
-19 -26 0
-19 -27 0
-20 -21 0
-20 -22 0
-20 -23 0
-20 -24 0
-20 -25 0
-20 -26 0
-20 -27 0
-21 -22 0
-21 -23 0
-21 -24 0
-21 -25 0
-21 -26 0
-21 -27 0
-22 -23 0
-22 -24 0
-22 -25 0
-22 -26 0
-22 -27 0
-23 -24 0
-23 -25 0
-23 -26 0
-23 -27 0
-24 -25 0
-24 -26 0
-24 -27 0
-25 -26 0
-25 -27 0
-26 -27 0
28 29 30 31 32 33 34 35 36 0
-28 -29 0
-28 -30 0
-28 -31 0
-28 -32 0
-28 -33 0
-28 -34 0
-28 -35 0
-28 -36 0
-29 -30 0
-29 -31 0
-29 -32 0
-29 -33 0
-29 -34 0
-29 -35 0
-29 -36 0
-30 -31 0
-30 -32 0
-30 -33 0
-30 -34 0
-30 -35 0
-30 -36 0
-31 -32 0
-31 -33 0
-31 -34 0
-31 -35 0
-31 -36 0
-32 -33 0
-32 -34 0
-32 -35 0
-32 -36 0
-33 -34 0
-33 -35 0
-33 -36 0
-34 -35 0
-34 -36 0
-35 -36 0
37 38 39 40 41 42 43 44 45 0
-37 -38 0
-37 -39 0
-37 -40 0
-37 -41 0
-37 -42 0
-37 -43 0
-37 -44 0
-37 -45 0
-38 -39 0
-38 -40 0
-38 -41 0
-38 -42 0
-38 -43 0
-38 -44 0
-38 -45 0
-39 -40 0
-39 -41 0
-39 -42 0
-39 -43 0
-39 -44 0
-39 -45 0
-40 -41 0
-40 -42 0
-40 -43 0
-40 -44 0
-40 -45 0
-41 -42 0
-41 -43 0
-41 -44 0
-41 -45 0
-42 -43 0
-42 -44 0
-42 -45 0
-43 -44 0
-43 -45 0
-44 -45 0
46 47 48 49 50 51 52 53 54 0
-46 -47 0
-46 -48 0
-46 -49 0
-46 -50 0
-46 -51 0
-46 -52 0
-46 -53 0
-46 -54 0
-47 -48 0
-47 -49 0
-47 -50 0
-47 -51 0
-47 -52 0
-47 -53 0
-47 -54 0
-48 -49 0
-48 -50 0
-48 -51 0
-48 -52 0
-48 -53 0
-48 -54 0
-49 -50 0
-49 -51 0
-49 -52 0
-49 -53 0
-49 -54 0
-50 -51 0
-50 -52 0
-50 -53 0
-50 -54 0
-51 -52 0
-51 -53 0
-51 -54 0
-52 -53 0
-52 -54 0
-53 -54 0
55 56 57 58 59 60 61 62 63 0
-55 -56 0
-55 -57 0
-55 -58 0
-55 -59 0
-55 -60 0
-55 -61 0
-55 -62 0
-55 -63 0
-56 -57 0
-56 -58 0
-56 -59 0
-56 -60 0
-56 -61 0
-56 -62 0
-56 -63 0
-57 -58 0
-57 -59 0
-57 -60 0
-57 -61 0
-57 -62 0
-57 -63 0
-58 -59 0
-58 -60 0
-58 -61 0
-58 -62 0
-58 -63 0
-59 -60 0
-59 -61 0
-59 -62 0
-59 -63 0
-60 -61 0
-60 -62 0
-60 -63 0
-61 -62 0
-61 -63 0
-62 -63 0
64 65 66 67 68 69 70 71 72 0
-64 -65 0
-64 -66 0
-64 -67 0
-64 -68 0
-64 -69 0
-64 -70 0
-64 -71 0
-64 -72 0
-65 -66 0
-65 -67 0
-65 -68 0
-65 -69 0
-65 -70 0
-65 -71 0
-65 -72 0
-66 -67 0
-66 -68 0
-66 -69 0
-66 -70 0
-66 -71 0
-66 -72 0
-67 -68 0
-67 -69 0
-67 -70 0
-67 -71 0
-67 -72 0
-68 -69 0
-68 -70 0
-68 -71 0
-68 -72 0
-69 -70 0
-69 -71 0
-69 -72 0
-70 -71 0
-70 -72 0
-71 -72 0
73 74 75 76 77 78 79 80 81 0
-73 -74 0
-73 -75 0
-73 -76 0
-73 -77 0
-73 -78 0
-73 -79 0
-73 -80 0
-73 -81 0
-74 -75 0
-74 -76 0
-74 -77 0
-74 -78 0
-74 -79 0
-74 -80 0
-74 -81 0
-75 -76 0
-75 -77 0
-75 -78 0
-75 -79 0
-75 -80 0
-75 -81 0
-76 -77 0
-76 -78 0
-76 -79 0
-76 -80 0
-76 -81 0
-77 -78 0
-77 -79 0
-77 -80 0
-77 -81 0
-78 -79 0
-78 -80 0
-78 -81 0
-79 -80 0
-79 -81 0
-80 -81 0
82 83 84 85 86 87 88 89 90 0
-82 -83 0
-82 -84 0
-82 -85 0
-82 -86 0
-82 -87 0
-82 -88 0
-82 -89 0
-82 -90 0
-83 -84 0
-83 -85 0
-83 -86 0
-83 -87 0
-83 -88 0
-83 -89 0
-83 -90 0
-84 -85 0
-84 -86 0
-84 -87 0
-84 -88 0
-84 -89 0
-84 -90 0
-85 -86 0
-85 -87 0
-85 -88 0
-85 -89 0
-85 -90 0
-86 -87 0
-86 -88 0
-86 -89 0
-86 -90 0
-87 -88 0
-87 -89 0
-87 -90 0
-88 -89 0
-88 -90 0
-89 -90 0
91 92 93 94 95 96 97 98 99 0
-91 -92 0
-91 -93 0
-91 -94 0
-91 -95 0
-91 -96 0
-91 -97 0
-91 -98 0
-91 -99 0
-92 -93 0
-92 -94 0
-92 -95 0
-92 -96 0
-92 -97 0
-92 -98 0
-92 -99 0
-93 -94 0
-93 -95 0
-93 -96 0
-93 -97 0
-93 -98 0
-93 -99 0
-94 -95 0
-94 -96 0
-94 -97 0
-94 -98 0
-94 -99 0
-95 -96 0
-95 -97 0
-95 -98 0
-95 -99 0
-96 -97 0
-96 -98 0
-96 -99 0
-97 -98 0
-97 -99 0
-98 -99 0
100 101 102 103 104 105 106 107 108 0
-100 -101 0
-100 -102 0
-100 -103 0
-100 -104 0
-100 -105 0
-100 -106 0
-100 -107 0
-100 -108 0
-101 -102 0
-101 -103 0
-101 -104 0
-101 -105 0
-101 -106 0
-101 -107 0
-101 -108 0
-102 -103 0
-102 -104 0
-102 -105 0
-102 -106 0
-102 -107 0
-102 -108 0
-103 -104 0
-103 -105 0
-103 -106 0
-103 -107 0
-103 -108 0
-104 -105 0
-104 -106 0
-104 -107 0
-104 -108 0
-105 -106 0
-105 -107 0
-105 -108 0
-106 -107 0
-106 -108 0
-107 -108 0
109 110 111 112 113 114 115 116 117 0
-109 -110 0
-109 -111 0
-109 -112 0
-109 -113 0
-109 -114 0
-109 -115 0
-109 -116 0
-109 -117 0
-110 -111 0
-110 -112 0
-110 -113 0
-110 -114 0
-110 -115 0
-110 -116 0
-110 -117 0
-111 -112 0
-111 -113 0
-111 -114 0
-111 -115 0
-111 -116 0
-111 -117 0
-112 -113 0
-112 -114 0
-112 -115 0
-112 -116 0
-112 -117 0
-113 -114 0
-113 -115 0
-113 -116 0
-113 -117 0
-114 -115 0
-114 -116 0
-114 -117 0
-115 -116 0
-115 -117 0
-116 -117 0
118 119 120 121 122 123 124 125 126 0
-118 -119 0
-118 -120 0
-118 -121 0
-118 -122 0
-118 -123 0
-118 -124 0
-118 -125 0
-118 -126 0
-119 -120 0
-119 -121 0
-119 -122 0
-119 -123 0
-119 -124 0
-119 -125 0
-119 -126 0
-120 -121 0
-120 -122 0
-120 -123 0
-120 -124 0
-120 -125 0
-120 -126 0
-121 -122 0
-121 -123 0
-121 -124 0
-121 -125 0
-121 -126 0
-122 -123 0
-122 -124 0
-122 -125 0
-122 -126 0
-123 -124 0
-123 -125 0
-123 -126 0
-124 -125 0
-124 -126 0
-125 -126 0
127 128 129 130 131 132 133 134 135 0
-127 -128 0
-127 -129 0
-127 -130 0
-127 -131 0
-127 -132 0
-127 -133 0
-127 -134 0
-127 -135 0
-128 -129 0
-128 -130 0
-128 -131 0
-128 -132 0
-128 -133 0
-128 -134 0
-128 -135 0
-129 -130 0
-129 -131 0
-129 -132 0
-129 -133 0
-129 -134 0
-129 -135 0
-130 -131 0
-130 -132 0
-130 -133 0
-130 -134 0
-130 -135 0
-131 -132 0
-131 -133 0
-131 -134 0
-131 -135 0
-132 -133 0
-132 -134 0
-132 -135 0
-133 -134 0
-133 -135 0
-134 -135 0
136 137 138 139 140 141 142 143 144 0
-136 -137 0
-136 -138 0
-136 -139 0
-136 -140 0
-136 -141 0
-136 -142 0
-136 -143 0
-136 -144 0
-137 -138 0
-137 -139 0
-137 -140 0
-137 -141 0
-137 -142 0
-137 -143 0
-137 -144 0
-138 -139 0
-138 -140 0
-138 -141 0
-138 -142 0
-138 -143 0
-138 -144 0
-139 -140 0
-139 -141 0
-139 -142 0
-139 -143 0
-139 -144 0
-140 -141 0
-140 -142 0
-140 -143 0
-140 -144 0
-141 -142 0
-141 -143 0
-141 -144 0
-142 -143 0
-142 -144 0
-143 -144 0
145 146 147 148 149 150 151 152 153 0
-145 -146 0
-145 -147 0
-145 -148 0
-145 -149 0
-145 -150 0
-145 -151 0
-145 -152 0
-145 -153 0
-146 -147 0
-146 -148 0
-146 -149 0
-146 -150 0
-146 -151 0
-146 -152 0
-146 -153 0
-147 -148 0
-147 -149 0
-147 -150 0
-147 -151 0
-147 -152 0
-147 -153 0
-148 -149 0
-148 -150 0
-148 -151 0
-148 -152 0
-148 -153 0
-149 -150 0
-149 -151 0
-149 -152 0
-149 -153 0
-150 -151 0
-150 -152 0
-150 -153 0
-151 -152 0
-151 -153 0
-152 -153 0
154 155 156 157 158 159 160 161 162 0
-154 -155 0
-154 -156 0
-154 -157 0
-154 -158 0
-154 -159 0
-154 -160 0
-154 -161 0
-154 -162 0
-155 -156 0
-155 -157 0
-155 -158 0
-155 -159 0
-155 -160 0
-155 -161 0
-155 -162 0
-156 -157 0
-156 -158 0
-156 -159 0
-156 -160 0
-156 -161 0
-156 -162 0
-157 -158 0
-157 -159 0
-157 -160 0
-157 -161 0
-157 -162 0
-158 -159 0
-158 -160 0
-158 -161 0
-158 -162 0
-159 -160 0
-159 -161 0
-159 -162 0
-160 -161 0
-160 -162 0
-161 -162 0
163 164 165 166 167 168 169 170 171 0
-163 -164 0
-163 -165 0
-163 -166 0
-163 -167 0
-163 -168 0
-163 -169 0
-163 -170 0
-163 -171 0
-164 -165 0
-164 -166 0
-164 -167 0
-164 -168 0
-164 -169 0
-164 -170 0
-164 -171 0
-165 -166 0
-165 -167 0
-165 -168 0
-165 -169 0
-165 -170 0
-165 -171 0
-166 -167 0
-166 -168 0
-166 -169 0
-166 -170 0
-166 -171 0
-167 -168 0
-167 -169 0
-167 -170 0
-167 -171 0
-168 -169 0
-168 -170 0
-168 -171 0
-169 -170 0
-169 -171 0
-170 -171 0
172 173 174 175 176 177 178 179 180 0
-172 -173 0
-172 -174 0
-172 -175 0
-172 -176 0
-172 -177 0
-172 -178 0
-172 -179 0
-172 -180 0
-173 -174 0
-173 -175 0
-173 -176 0
-173 -177 0
-173 -178 0
-173 -179 0
-173 -180 0
-174 -175 0
-174 -176 0
-174 -177 0
-174 -178 0
-174 -179 0
-174 -180 0
-175 -176 0
-175 -177 0
-175 -178 0
-175 -179 0
-175 -180 0
-176 -177 0
-176 -178 0
-176 -179 0
-176 -180 0
-177 -178 0
-177 -179 0
-177 -180 0
-178 -179 0
-178 -180 0
-179 -180 0
181 182 183 184 185 186 187 188 189 0
-181 -182 0
-181 -183 0
-181 -184 0
-181 -185 0
-181 -186 0
-181 -187 0
-181 -188 0
-181 -189 0
-182 -183 0
-182 -184 0
-182 -185 0
-182 -186 0
-182 -187 0
-182 -188 0
-182 -189 0
-183 -184 0
-183 -185 0
-183 -186 0
-183 -187 0
-183 -188 0
-183 -189 0
-184 -185 0
-184 -186 0
-184 -187 0
-184 -188 0
-184 -189 0
-185 -186 0
-185 -187 0
-185 -188 0
-185 -189 0
-186 -187 0
-186 -188 0
-186 -189 0
-187 -188 0
-187 -189 0
-188 -189 0
190 191 192 193 194 195 196 197 198 0
-190 -191 0
-190 -192 0
-190 -193 0
-190 -194 0
-190 -195 0
-190 -196 0
-190 -197 0
-190 -198 0
-191 -192 0
-191 -193 0
-191 -194 0
-191 -195 0
-191 -196 0
-191 -197 0
-191 -198 0
-192 -193 0
-192 -194 0
-192 -195 0
-192 -196 0
-192 -197 0
-192 -198 0
-193 -194 0
-193 -195 0
-193 -196 0
-193 -197 0
-193 -198 0
-194 -195 0
-194 -196 0
-194 -197 0
-194 -198 0
-195 -196 0
-195 -197 0
-195 -198 0
-196 -197 0
-196 -198 0
-197 -198 0
199 200 201 202 203 204 205 206 207 0
-199 -200 0
-199 -201 0
-199 -202 0
-199 -203 0
-199 -204 0
-199 -205 0
-199 -206 0
-199 -207 0
-200 -201 0
-200 -202 0
-200 -203 0
-200 -204 0
-200 -205 0
-200 -206 0
-200 -207 0
-201 -202 0
-201 -203 0
-201 -204 0
-201 -205 0
-201 -206 0
-201 -207 0
-202 -203 0
-202 -204 0
-202 -205 0
-202 -206 0
-202 -207 0
-203 -204 0
-203 -205 0
-203 -206 0
-203 -207 0
-204 -205 0
-204 -206 0
-204 -207 0
-205 -206 0
-205 -207 0
-206 -207 0
208 209 210 211 212 213 214 215 216 0
-208 -209 0
-208 -210 0
-208 -211 0
-208 -212 0
-208 -213 0
-208 -214 0
-208 -215 0
-208 -216 0
-209 -210 0
-209 -211 0
-209 -212 0
-209 -213 0
-209 -214 0
-209 -215 0
-209 -216 0
-210 -211 0
-210 -212 0
-210 -213 0
-210 -214 0
-210 -215 0
-210 -216 0
-211 -212 0
-211 -213 0
-211 -214 0
-211 -215 0
-211 -216 0
-212 -213 0
-212 -214 0
-212 -215 0
-212 -216 0
-213 -214 0
-213 -215 0
-213 -216 0
-214 -215 0
-214 -216 0
-215 -216 0
217 218 219 220 221 222 223 224 225 0
-217 -218 0
-217 -219 0
-217 -220 0
-217 -221 0
-217 -222 0
-217 -223 0
-217 -224 0
-217 -225 0
-218 -219 0
-218 -220 0
-218 -221 0
-218 -222 0
-218 -223 0
-218 -224 0
-218 -225 0
-219 -220 0
-219 -221 0
-219 -222 0
-219 -223 0
-219 -224 0
-219 -225 0
-220 -221 0
-220 -222 0
-220 -223 0
-220 -224 0
-220 -225 0
-221 -222 0
-221 -223 0
-221 -224 0
-221 -225 0
-222 -223 0
-222 -224 0
-222 -225 0
-223 -224 0
-223 -225 0
-224 -225 0
226 227 228 229 230 231 232 233 234 0
-226 -227 0
-226 -228 0
-226 -229 0
-226 -230 0
-226 -231 0
-226 -232 0
-226 -233 0
-226 -234 0
-227 -228 0
-227 -229 0
-227 -230 0
-227 -231 0
-227 -232 0
-227 -233 0
-227 -234 0
-228 -229 0
-228 -230 0
-228 -231 0
-228 -232 0
-228 -233 0
-228 -234 0
-229 -230 0
-229 -231 0
-229 -232 0
-229 -233 0
-229 -234 0
-230 -231 0
-230 -232 0
-230 -233 0
-230 -234 0
-231 -232 0
-231 -233 0
-231 -234 0
-232 -233 0
-232 -234 0
-233 -234 0
235 236 237 238 239 240 241 242 243 0
-235 -236 0
-235 -237 0
-235 -238 0
-235 -239 0
-235 -240 0
-235 -241 0
-235 -242 0
-235 -243 0
-236 -237 0
-236 -238 0
-236 -239 0
-236 -240 0
-236 -241 0
-236 -242 0
-236 -243 0
-237 -238 0
-237 -239 0
-237 -240 0
-237 -241 0
-237 -242 0
-237 -243 0
-238 -239 0
-238 -240 0
-238 -241 0
-238 -242 0
-238 -243 0
-239 -240 0
-239 -241 0
-239 -242 0
-239 -243 0
-240 -241 0
-240 -242 0
-240 -243 0
-241 -242 0
-241 -243 0
-242 -243 0
244 245 246 247 248 249 250 251 252 0
-244 -245 0
-244 -246 0
-244 -247 0
-244 -248 0
-244 -249 0
-244 -250 0
-244 -251 0
-244 -252 0
-245 -246 0
-245 -247 0
-245 -248 0
-245 -249 0
-245 -250 0
-245 -251 0
-245 -252 0
-246 -247 0
-246 -248 0
-246 -249 0
-246 -250 0
-246 -251 0
-246 -252 0
-247 -248 0
-247 -249 0
-247 -250 0
-247 -251 0
-247 -252 0
-248 -249 0
-248 -250 0
-248 -251 0
-248 -252 0
-249 -250 0
-249 -251 0
-249 -252 0
-250 -251 0
-250 -252 0
-251 -252 0
253 254 255 256 257 258 259 260 261 0
-253 -254 0
-253 -255 0
-253 -256 0
-253 -257 0
-253 -258 0
-253 -259 0
-253 -260 0
-253 -261 0
-254 -255 0
-254 -256 0
-254 -257 0
-254 -258 0
-254 -259 0
-254 -260 0
-254 -261 0
-255 -256 0
-255 -257 0
-255 -258 0
-255 -259 0
-255 -260 0
-255 -261 0
-256 -257 0
-256 -258 0
-256 -259 0
-256 -260 0
-256 -261 0
-257 -258 0
-257 -259 0
-257 -260 0
-257 -261 0
-258 -259 0
-258 -260 0
-258 -261 0
-259 -260 0
-259 -261 0
-260 -261 0
262 263 264 265 266 267 268 269 270 0
-262 -263 0
-262 -264 0
-262 -265 0
-262 -266 0
-262 -267 0
-262 -268 0
-262 -269 0
-262 -270 0
-263 -264 0
-263 -265 0
-263 -266 0
-263 -267 0
-263 -268 0
-263 -269 0
-263 -270 0
-264 -265 0
-264 -266 0
-264 -267 0
-264 -268 0
-264 -269 0
-264 -270 0
-265 -266 0
-265 -267 0
-265 -268 0
-265 -269 0
-265 -270 0
-266 -267 0
-266 -268 0
-266 -269 0
-266 -270 0
-267 -268 0
-267 -269 0
-267 -270 0
-268 -269 0
-268 -270 0
-269 -270 0
271 272 273 274 275 276 277 278 279 0
-271 -272 0
-271 -273 0
-271 -274 0
-271 -275 0
-271 -276 0
-271 -277 0
-271 -278 0
-271 -279 0
-272 -273 0
-272 -274 0
-272 -275 0
-272 -276 0
-272 -277 0
-272 -278 0
-272 -279 0
-273 -274 0
-273 -275 0
-273 -276 0
-273 -277 0
-273 -278 0
-273 -279 0
-274 -275 0
-274 -276 0
-274 -277 0
-274 -278 0
-274 -279 0
-275 -276 0
-275 -277 0
-275 -278 0
-275 -279 0
-276 -277 0
-276 -278 0
-276 -279 0
-277 -278 0
-277 -279 0
-278 -279 0
280 281 282 283 284 285 286 287 288 0
-280 -281 0
-280 -282 0
-280 -283 0
-280 -284 0
-280 -285 0
-280 -286 0
-280 -287 0
-280 -288 0
-281 -282 0
-281 -283 0
-281 -284 0
-281 -285 0
-281 -286 0
-281 -287 0
-281 -288 0
-282 -283 0
-282 -284 0
-282 -285 0
-282 -286 0
-282 -287 0
-282 -288 0
-283 -284 0
-283 -285 0
-283 -286 0
-283 -287 0
-283 -288 0
-284 -285 0
-284 -286 0
-284 -287 0
-284 -288 0
-285 -286 0
-285 -287 0
-285 -288 0
-286 -287 0
-286 -288 0
-287 -288 0
289 290 291 292 293 294 295 296 297 0
-289 -290 0
-289 -291 0
-289 -292 0
-289 -293 0
-289 -294 0
-289 -295 0
-289 -296 0
-289 -297 0
-290 -291 0
-290 -292 0
-290 -293 0
-290 -294 0
-290 -295 0
-290 -296 0
-290 -297 0
-291 -292 0
-291 -293 0
-291 -294 0
-291 -295 0
-291 -296 0
-291 -297 0
-292 -293 0
-292 -294 0
-292 -295 0
-292 -296 0
-292 -297 0
-293 -294 0
-293 -295 0
-293 -296 0
-293 -297 0
-294 -295 0
-294 -296 0
-294 -297 0
-295 -296 0
-295 -297 0
-296 -297 0
298 299 300 301 302 303 304 305 306 0
-298 -299 0
-298 -300 0
-298 -301 0
-298 -302 0
-298 -303 0
-298 -304 0
-298 -305 0
-298 -306 0
-299 -300 0
-299 -301 0
-299 -302 0
-299 -303 0
-299 -304 0
-299 -305 0
-299 -306 0
-300 -301 0
-300 -302 0
-300 -303 0
-300 -304 0
-300 -305 0
-300 -306 0
-301 -302 0
-301 -303 0
-301 -304 0
-301 -305 0
-301 -306 0
-302 -303 0
-302 -304 0
-302 -305 0
-302 -306 0
-303 -304 0
-303 -305 0
-303 -306 0
-304 -305 0
-304 -306 0
-305 -306 0
307 308 309 310 311 312 313 314 315 0
-307 -308 0
-307 -309 0
-307 -310 0
-307 -311 0
-307 -312 0
-307 -313 0
-307 -314 0
-307 -315 0
-308 -309 0
-308 -310 0
-308 -311 0
-308 -312 0
-308 -313 0
-308 -314 0
-308 -315 0
-309 -310 0
-309 -311 0
-309 -312 0
-309 -313 0
-309 -314 0
-309 -315 0
-310 -311 0
-310 -312 0
-310 -313 0
-310 -314 0
-310 -315 0
-311 -312 0
-311 -313 0
-311 -314 0
-311 -315 0
-312 -313 0
-312 -314 0
-312 -315 0
-313 -314 0
-313 -315 0
-314 -315 0
-316 1 0
-316 64 0
-316 127 0
-317 10 0
-317 73 0
-317 136 0
-318 19 0
-318 82 0
-318 145 0
-319 28 0
-319 91 0
-319 154 0
-320 37 0
-320 100 0
-320 163 0
-321 46 0
-321 109 0
-321 172 0
-322 55 0
-322 118 0
-322 181 0
-323 64 0
-323 127 0
-323 190 0
-324 73 0
-324 136 0
-324 199 0
-325 82 0
-325 145 0
-325 208 0
-326 91 0
-326 154 0
-326 217 0
-327 100 0
-327 163 0
-327 226 0
-328 109 0
-328 172 0
-328 235 0
-329 118 0
-329 181 0
-329 244 0
-330 127 0
-330 190 0
-330 253 0
-331 136 0
-331 199 0
-331 262 0
-332 145 0
-332 208 0
-332 271 0
-333 154 0
-333 217 0
-333 280 0
-334 163 0
-334 226 0
-334 289 0
-335 172 0
-335 235 0
-335 298 0
-336 181 0
-336 244 0
-336 307 0
-337 2 0
-337 11 0
-338 11 0
-338 20 0
-339 20 0
-339 29 0
-340 29 0
-340 38 0
-341 38 0
-341 47 0
-342 47 0
-342 56 0
-343 65 0
-343 74 0
-344 74 0
-344 83 0
-345 83 0
-345 92 0
-346 92 0
-346 101 0
-347 101 0
-347 110 0
-348 110 0
-348 119 0
-349 128 0
-349 137 0
-350 137 0
-350 146 0
-351 146 0
-351 155 0
-352 155 0
-352 164 0
-353 164 0
-353 173 0
-354 173 0
-354 182 0
-355 191 0
-355 200 0
-356 200 0
-356 209 0
-357 209 0
-357 218 0
-358 218 0
-358 227 0
-359 227 0
-359 236 0
-360 236 0
-360 245 0
-361 254 0
-361 263 0
-362 263 0
-362 272 0
-363 272 0
-363 281 0
-364 281 0
-364 290 0
-365 290 0
-365 299 0
-366 299 0
-366 308 0
-367 3 0
-367 12 0
-367 66 0
-367 75 0
-368 12 0
-368 21 0
-368 75 0
-368 84 0
-369 21 0
-369 30 0
-369 84 0
-369 93 0
-370 30 0
-370 39 0
-370 93 0
-370 102 0
-371 39 0
-371 48 0
-371 102 0
-371 111 0
-372 48 0
-372 57 0
-372 111 0
-372 120 0
-373 66 0
-373 75 0
-373 129 0
-373 138 0
-374 75 0
-374 84 0
-374 138 0
-374 147 0
-375 84 0
-375 93 0
-375 147 0
-375 156 0
-376 93 0
-376 102 0
-376 156 0
-376 165 0
-377 102 0
-377 111 0
-377 165 0
-377 174 0
-378 111 0
-378 120 0
-378 174 0
-378 183 0
-379 129 0
-379 138 0
-379 192 0
-379 201 0
-380 138 0
-380 147 0
-380 201 0
-380 210 0
-381 147 0
-381 156 0
-381 210 0
-381 219 0
-382 156 0
-382 165 0
-382 219 0
-382 228 0
-383 165 0
-383 174 0
-383 228 0
-383 237 0
-384 174 0
-384 183 0
-384 237 0
-384 246 0
-385 192 0
-385 201 0
-385 255 0
-385 264 0
-386 201 0
-386 210 0
-386 264 0
-386 273 0
-387 210 0
-387 219 0
-387 273 0
-387 282 0
-388 219 0
-388 228 0
-388 282 0
-388 291 0
-389 228 0
-389 237 0
-389 291 0
-389 300 0
-390 237 0
-390 246 0
-390 300 0
-390 309 0
-391 4 0
-391 13 0
-391 22 0
-391 31 0
-391 40 0
-392 13 0
-392 22 0
-392 31 0
-392 40 0
-392 49 0
-393 22 0
-393 31 0
-393 40 0
-393 49 0
-393 58 0
-394 67 0
-394 76 0
-394 85 0
-394 94 0
-394 103 0
-395 76 0
-395 85 0
-395 94 0
-395 103 0
-395 112 0
-396 85 0
-396 94 0
-396 103 0
-396 112 0
-396 121 0
-397 130 0
-397 139 0
-397 148 0
-397 157 0
-397 166 0
-398 139 0
-398 148 0
-398 157 0
-398 166 0
-398 175 0
-399 148 0
-399 157 0
-399 166 0
-399 175 0
-399 184 0
-400 193 0
-400 202 0
-400 211 0
-400 220 0
-400 229 0
-401 202 0
-401 211 0
-401 220 0
-401 229 0
-401 238 0
-402 211 0
-402 220 0
-402 229 0
-402 238 0
-402 247 0
-403 256 0
-403 265 0
-403 274 0
-403 283 0
-403 292 0
-404 265 0
-404 274 0
-404 283 0
-404 292 0
-404 301 0
-405 274 0
-405 283 0
-405 292 0
-405 301 0
-405 310 0
-406 5 0
-406 14 0
-406 23 0
-406 68 0
-406 77 0
-406 86 0
-406 131 0
-406 140 0
-406 149 0
-407 14 0
-407 23 0
-407 32 0
-407 77 0
-407 86 0
-407 95 0
-407 140 0
-407 149 0
-407 158 0
-408 23 0
-408 32 0
-408 41 0
-408 86 0
-408 95 0
-408 104 0
-408 149 0
-408 158 0
-408 167 0
-409 32 0
-409 41 0
-409 50 0
-409 95 0
-409 104 0
-409 113 0
-409 158 0
-409 167 0
-409 176 0
-410 41 0
-410 50 0
-410 59 0
-410 104 0
-410 113 0
-410 122 0
-410 167 0
-410 176 0
-410 185 0
-411 68 0
-411 77 0
-411 86 0
-411 131 0
-411 140 0
-411 149 0
-411 194 0
-411 203 0
-411 212 0
-412 77 0
-412 86 0
-412 95 0
-412 140 0
-412 149 0
-412 158 0
-412 203 0
-412 212 0
-412 221 0
-413 86 0
-413 95 0
-413 104 0
-413 149 0
-413 158 0
-413 167 0
-413 212 0
-413 221 0
-413 230 0
-414 95 0
-414 104 0
-414 113 0
-414 158 0
-414 167 0
-414 176 0
-414 221 0
-414 230 0
-414 239 0
-415 104 0
-415 113 0
-415 122 0
-415 167 0
-415 176 0
-415 185 0
-415 230 0
-415 239 0
-415 248 0
-416 131 0
-416 140 0
-416 149 0
-416 194 0
-416 203 0
-416 212 0
-416 257 0
-416 266 0
-416 275 0
-417 140 0
-417 149 0
-417 158 0
-417 203 0
-417 212 0
-417 221 0
-417 266 0
-417 275 0
-417 284 0
-418 149 0
-418 158 0
-418 167 0
-418 212 0
-418 221 0
-418 230 0
-418 275 0
-418 284 0
-418 293 0
-419 158 0
-419 167 0
-419 176 0
-419 221 0
-419 230 0
-419 239 0
-419 284 0
-419 293 0
-419 302 0
-420 167 0
-420 176 0
-420 185 0
-420 230 0
-420 239 0
-420 248 0
-420 293 0
-420 302 0
-420 311 0
-421 6 0
-421 15 0
-421 24 0
-422 15 0
-422 24 0
-422 33 0
-423 24 0
-423 33 0
-423 42 0
-424 33 0
-424 42 0
-424 51 0
-425 42 0
-425 51 0
-425 60 0
-426 69 0
-426 78 0
-426 87 0
-427 78 0
-427 87 0
-427 96 0
-428 87 0
-428 96 0
-428 105 0
-429 96 0
-429 105 0
-429 114 0
-430 105 0
-430 114 0
-430 123 0
-431 132 0
-431 141 0
-431 150 0
-432 141 0
-432 150 0
-432 159 0
-433 150 0
-433 159 0
-433 168 0
-434 159 0
-434 168 0
-434 177 0
-435 168 0
-435 177 0
-435 186 0
-436 195 0
-436 204 0
-436 213 0
-437 204 0
-437 213 0
-437 222 0
-438 213 0
-438 222 0
-438 231 0
-439 222 0
-439 231 0
-439 240 0
-440 231 0
-440 240 0
-440 249 0
-441 258 0
-441 267 0
-441 276 0
-442 267 0
-442 276 0
-442 285 0
-443 276 0
-443 285 0
-443 294 0
-444 285 0
-444 294 0
-444 303 0
-445 294 0
-445 303 0
-445 312 0
-446 7 0
-446 70 0
-447 16 0
-447 79 0
-448 25 0
-448 88 0
-449 34 0
-449 97 0
-450 43 0
-450 106 0
-451 52 0
-451 115 0
-452 61 0
-452 124 0
-453 70 0
-453 133 0
-454 79 0
-454 142 0
-455 88 0
-455 151 0
-456 97 0
-456 160 0
-457 106 0
-457 169 0
-458 115 0
-458 178 0
-459 124 0
-459 187 0
-460 133 0
-460 196 0
-461 142 0
-461 205 0
-462 151 0
-462 214 0
-463 160 0
-463 223 0
-464 169 0
-464 232 0
-465 178 0
-465 241 0
-466 187 0
-466 250 0
-467 196 0
-467 259 0
-468 205 0
-468 268 0
-469 214 0
-469 277 0
-470 223 0
-470 286 0
-471 232 0
-471 295 0
-472 241 0
-472 304 0
-473 250 0
-473 313 0
-474 8 0
-474 17 0
-474 26 0
-474 35 0
-474 44 0
-474 53 0
-475 17 0
-475 26 0
-475 35 0
-475 44 0
-475 53 0
-475 62 0
-476 71 0
-476 80 0
-476 89 0
-476 98 0
-476 107 0
-476 116 0
-477 80 0
-477 89 0
-477 98 0
-477 107 0
-477 116 0
-477 125 0
-478 134 0
-478 143 0
-478 152 0
-478 161 0
-478 170 0
-478 179 0
-479 143 0
-479 152 0
-479 161 0
-479 170 0
-479 179 0
-479 188 0
-480 197 0
-480 206 0
-480 215 0
-480 224 0
-480 233 0
-480 242 0
-481 206 0
-481 215 0
-481 224 0
-481 233 0
-481 242 0
-481 251 0
-482 260 0
-482 269 0
-482 278 0
-482 287 0
-482 296 0
-482 305 0
-483 269 0
-483 278 0
-483 287 0
-483 296 0
-483 305 0
-483 314 0
-484 9 0
-485 18 0
-486 27 0
-487 36 0
-488 45 0
-489 54 0
-490 63 0
-491 72 0
-492 81 0
-493 90 0
-494 99 0
-495 108 0
-496 117 0
-497 126 0
-498 135 0
-499 144 0
-500 153 0
-501 162 0
-502 171 0
-503 180 0
-504 189 0
-505 198 0
-506 207 0
-507 216 0
-508 225 0
-509 234 0
-510 243 0
-511 252 0
-512 261 0
-513 270 0
-514 279 0
-515 288 0
-516 297 0
-517 306 0
-518 315 0
316 317 318 319 320 321 322 323 324 325 326 327 328 329 330 331 332 333 334 335 336 0
337 338 339 340 341 342 343 344 345 346 347 348 349 350 351 352 353 354 355 356 357 358 359 360 361 362 363 364 365 366 0
367 368 369 370 371 372 373 374 375 376 377 378 379 380 381 382 383 384 385 386 387 388 389 390 0
391 392 393 394 395 396 397 398 399 400 401 402 403 404 405 0
406 407 408 409 410 411 412 413 414 415 416 417 418 419 420 0
421 422 423 424 425 426 427 428 429 430 431 432 433 434 435 436 437 438 439 440 441 442 443 444 445 0
446 447 448 449 450 451 452 453 454 455 456 457 458 459 460 461 462 463 464 465 466 467 468 469 470 471 472 473 0
474 475 476 477 478 479 480 481 482 483 0
484 485 486 487 488 489 490 491 492 493 494 495 496 497 498 499 500 501 502 503 504 505 506 507 508 509 510 511 512 513 514 515 516 517 518 0
